1 1 -2 0
1 -1 3 0
1 -4 1 0
1 -5 3 0
1 -6 -7 0
1 -6 8 0
1 -6 9 0
1 6 3 0
1 8 10 0
1 8 4 0
1 8 11 0
1 3 8 0
1 -3 12 0
1 3 -5 0
1 -13 -14 0
1 13 6 0
1 13 5 0
1 -2 -15 0
1 2 -14 0
1 2 -6 0
1 2 -4 0
1 2 13 0
1 -2 1 0
1 -2 -16 0
1 11 -8 0
1 10 7 0
1 10 -9 0
1 -10 -3 0
1 17 -18 0
1 -17 7 0
1 17 19 0
1 -17 -20 0
1 -17 21 0
1 17 -3 0
1 22 -15 0
1 22 -8 0
1 22 20 0
1 22 9 0
1 -22 -21 0
1 9 23 0
1 -9 -6 0
1 9 5 0
1 9 24 0
1 7 -25 0
1 7 -23 0
1 20 26 0
1 20 -22 0
1 -20 -6 0
1 20 -27 0
1 18 26 0
1 18 10 0
1 18 28 0
1 -18 5 0
1 29 23 0
1 29 19 0
1 -29 -12 0
1 -30 -7 0
1 30 -9 0
1 -30 21 0
1 -25 26 0
1 -25 31 0
1 25 -21 0
1 -21 -32 0
1 32 -29 0
1 32 -21 0
1 31 33 0
1 -31 -17 0
1 -31 -34 0
1 19 -22 0
1 -19 27 0
1 -19 29 0
1 19 34 0
1 -35 -36 0
1 -14 -37 0
1 14 13 0
1 -38 37 0
1 -38 -13 0
1 -38 -39 0
1 15 -40 0
1 15 -38 0
1 15 -39 0
1 15 2 0
1 36 -26 0
1 36 -41 0
1 36 -14 0
1 -36 12 0
1 42 -36 0
1 -42 -28 0
1 42 -12 0
1 -42 -35 0
1 37 15 0
1 37 38 0
1 -43 -14 0
1 43 38 0
1 -43 -35 0
1 12 41 0
1 12 -2 0
1 -12 -3 0
1 -41 42 0
1 -41 44 0
1 -28 26 0
1 28 36 0
1 -28 -45 0
1 -28 30 0
1 28 -39 0
1 28 16 0
1 -26 -20 0
1 -26 -28 0
1 -26 42 0
1 40 -26 0
1 -40 -28 0
1 -44 26 0
1 44 33 0
1 44 28 0
1 -44 38 0
1 44 34 0
1 46 28 0
1 46 38 0
1 -39 -26 0
1 39 46 0
1 -39 -38 0
1 -27 -18 0
1 -27 -44 0
1 -24 -7 0
1 -24 20 0
1 -24 -9 0
1 24 44 0
1 -33 -19 0
1 -33 -47 0
1 33 34 0
1 -34 -40 0
1 -47 -33 0
1 -47 -27 0
1 -47 8 0
1 -47 28 0
1 -47 -34 0
1 47 24 0
1 -48 34 0
1 45 -16 0
